Version identifier: 22.1.1.0 | 2022-11-28 | 9160aff4d
CPXPARAM_ClockType                               1
CPXPARAM_Read_DataCheck                          1
CPXPARAM_Threads                                 1
CPXPARAM_TimeLimit                               7200
CPXPARAM_MIP_Tolerances_AbsMIPGap                0
CPXPARAM_MIP_Tolerances_MIPGap                   0
CPXPARAM_MIP_Tolerances_Integrality              0
Tried aggregator 2 times.
MIP Presolve eliminated 13004 rows and 5253 columns.
MIP Presolve modified 2724 coefficients.
Aggregator did 610 substitutions.
Reduced MIP has 3241 rows, 2232 columns, and 8315 nonzeros.
Reduced MIP has 2232 binaries, 0 generals, 0 SOSs, and 0 indicators.
Presolve time = 0.02 sec. (17.20 ticks)
Found incumbent of value 0.000000 after 0.03 sec. (20.17 ticks)
Probing time = 0.00 sec. (2.43 ticks)
Tried aggregator 1 time.
Detecting symmetries...
Reduced MIP has 3241 rows, 2232 columns, and 8315 nonzeros.
Reduced MIP has 2232 binaries, 0 generals, 0 SOSs, and 0 indicators.
Presolve time = 0.01 sec. (7.40 ticks)
Probing time = 0.01 sec. (2.39 ticks)
Clique table members: 4211.
MIP emphasis: balance optimality and feasibility.
MIP search method: dynamic search.
Parallel mode: none, using 1 thread.
Root relaxation solution time = 0.04 sec. (32.58 ticks)

        Nodes                                         Cuts/
   Node  Left     Objective  IInf  Best Integer    Best Bound    ItCnt     Gap

*     0+    0                            0.0000     2842.0000              --- 
      0     0     1421.0000   812        0.0000     1421.0000     1833     --- 
*     0+    0                         1218.0000     1421.0000            16.67%
      0     0        cutoff           1218.0000                   2316     --- 
Elapsed time = 0.27 sec. (199.36 ticks, tree = 0.01 MB, solutions = 2)

Zero-half cuts applied:  203
Lift and project cuts applied:  3

Root node processing (before b&c):
  Real time             =    0.27 sec. (199.71 ticks)
Sequential b&c:
  Real time             =    0.00 sec. (0.00 ticks)
                          ------------
Total (root+branch&cut) =    0.27 sec. (199.71 ticks)
Solution is feasible.

---------------------
@@@ MIP_optimal
>>> Benchmark mc2024_track1_181.cnf k 5 OPT 1218 TimeCost 2.594923257827759 TimeSolve 0.28952479362487793 TimeRead 0.02148127555847168 TimeTrans 2.283917188644409
